%%% static parameters %%%
timespan = 1;
Fact = [2];
Distr1 = [5];
Distr2 = [10];
Clients_N = [100];
Demand_W = [15];
Lt0 = [4];
Lt1 = [4];
SS_ = [0.85];
DS_D = [8];
K = [200];
MA = [500];
%%% dynamic parameters %%%
lost_ratio_sales_ret_th = 0.0795819049437213;
lost_ratio_sales_ret_w = 1;
lost_ratio_sales_dis_th = 0.6814376328463289;
lost_ratio_sales_dis_w = 99;
lost_ratio_sales_fac_th = 0.0020195188960144828;
lost_ratio_sales_fac_w = 62;
stock_customer_MA_mean_relative_th = 0.9622686009867346;
stock_customer_MA_mean_relative_w = 55;
stock_distributor_MA_mean_relative_th = 0.374454474684344;
stock_distributor_MA_mean_relative_w = 90;
stock_retailer_MA_mean_relative_th = 0.3042926262414839;
stock_retailer_MA_mean_relative_w = 10;
stock_factory_MA_mean_relative_th = 0.9623424329193059;
stock_factory_MA_mean_relative_w = 81;
